0 70 80
1 59 82
2 70 83
3 65 82
4 74 81
5 70 78
6 69 76
7 71 78
8 63 76
9 69 74
10 62 76
11 41 75
12 52 72
13 63 69
14 38 68
15 55 68
16 48 65
17 60 60
18 59 59
19 53 55
20 40 57
21 52 59
22 46 53
23 40 54
24 51 54
25 31 53
26 32 46
27 33 46
28 40 41
29 36 40
30 32 39
31 32 37
32 36 37
33 23 37
34 33 34
35 31 34
36 31 32
37 31 32
38 18 29
39 18 28
40 27 28
41 28 29
42 21 29
43 22 26
44 20 28
45 24 27
46 22 25
47 13 22
48 10 19
49 14 19
50 19 20
51 12 14
52 11 14
53 8 10
54 6 9
55 8 8
56 5 6
57 3 4
58 4 4
59 1 3
60 2 3
61 1 2

